c FILE /home/rafael/Documents/HappySet/MIHS/inputs/happygen/output/graph_d_regular_k5_p0.3_v100_20241127_084044.txt
c SOURCE This is a d-regular graph formed for the happy graph colouring problem.
c DESCRIPTION It was generated using the problem generator of Rhyd Lewis
c
c GRAPH STATS
c Seed                             = 162425361
c Number of Nodes                  = 100
c Number of colours k              = 5
c Number of pre-assignments        = 30
c Degree of all vertices           = 6
c Density                          = 0.0606061
c 
c The degrees of nodes 1 to 100, respectively, are as follows 
c [6, 6, 6, 6, 6, 6, 6, 6, 6, 6, 6, 6, 6, 6, 6, 6, 6, 6, 6, 6, 6, 6, 6, 6, 6, 6, 
c  6, 6, 6, 6, 6, 6, 6, 6, 6, 6, 6, 6, 6, 6, 6, 6, 6, 6, 6, 6, 6, 6, 6, 6, 6, 
c  6, 6, 6, 6, 6, 6, 6, 6, 6, 6, 6, 6, 6, 6, 6, 6, 6, 6, 6, 6, 6, 6, 6, 6, 6, 
c  6, 6, 6, 6, 6, 6, 6, 6, 6, 6, 6, 6, 6, 6, 6, 6, 6, 6, 6, 6, 6, 6, 6, 6] 
c  
p edge 100 300 5
e 1 5
e 1 13
e 1 27
e 1 46
e 1 74
e 1 77
e 2 7
e 2 17
e 2 28
e 2 59
e 2 82
e 2 95
e 3 29
e 3 32
e 3 63
e 3 66
e 3 74
e 3 96
e 4 18
e 4 31
e 4 46
e 4 53
e 4 59
e 4 68
e 5 34
e 5 40
e 5 43
e 5 51
e 5 62
e 6 26
e 6 46
e 6 49
e 6 73
e 6 74
e 6 86
e 7 11
e 7 33
e 7 52
e 7 63
e 7 87
e 8 16
e 8 21
e 8 45
e 8 50
e 8 80
e 8 89
e 9 10
e 9 24
e 9 35
e 9 60
e 9 70
e 9 83
e 10 20
e 10 70
e 10 81
e 10 86
e 10 92
e 11 17
e 11 24
e 11 48
e 11 62
e 11 99
e 12 14
e 12 20
e 12 29
e 12 79
e 12 84
e 12 94
e 13 22
e 13 55
e 13 76
e 13 78
e 13 92
e 14 20
e 14 35
e 14 36
e 14 65
e 14 88
e 15 23
e 15 24
e 15 44
e 15 64
e 15 84
e 15 100
e 16 37
e 16 40
e 16 47
e 16 51
e 16 59
e 17 28
e 17 32
e 17 39
e 17 64
e 18 21
e 18 32
e 18 39
e 18 41
e 18 71
e 19 37
e 19 42
e 19 51
e 19 57
e 19 75
e 19 100
e 20 46
e 20 82
e 20 96
e 21 30
e 21 57
e 21 82
e 21 88
e 22 45
e 22 66
e 22 88
e 22 91
e 22 93
e 23 25
e 23 60
e 23 64
e 23 82
e 23 87
e 24 34
e 24 40
e 24 68
e 25 33
e 25 51
e 25 52
e 25 54
e 25 67
e 26 30
e 26 31
e 26 37
e 26 50
e 26 58
e 27 48
e 27 75
e 27 81
e 27 87
e 27 91
e 28 56
e 28 59
e 28 81
e 28 100
e 29 47
e 29 76
e 29 78
e 29 90
e 30 42
e 30 54
e 30 80
e 30 96
e 31 47
e 31 89
e 31 94
e 31 99
e 32 54
e 32 66
e 32 79
e 33 61
e 33 63
e 33 68
e 33 94
e 34 35
e 34 39
e 34 88
e 34 92
e 35 55
e 35 65
e 35 69
e 36 42
e 36 47
e 36 74
e 36 77
e 36 85
e 37 55
e 37 74
e 37 84
e 38 58
e 38 63
e 38 72
e 38 77
e 38 78
e 38 79
e 39 41
e 39 53
e 39 89
e 40 57
e 40 70
e 40 89
e 41 43
e 41 64
e 41 71
e 41 78
e 42 94
e 42 96
e 42 98
e 43 47
e 43 53
e 43 64
e 43 95
e 44 49
e 44 56
e 44 78
e 44 82
e 44 97
e 45 48
e 45 52
e 45 72
e 45 99
e 46 67
e 46 89
e 47 85
e 48 70
e 48 71
e 48 86
e 49 66
e 49 72
e 49 73
e 49 90
e 50 61
e 50 79
e 50 83
e 50 88
e 51 80
e 51 87
e 52 53
e 52 86
e 52 91
e 53 67
e 53 75
e 54 85
e 54 91
e 54 100
e 55 57
e 55 64
e 55 93
e 56 77
e 56 79
e 56 90
e 56 93
e 57 82
e 57 91
e 58 62
e 58 77
e 58 89
e 58 100
e 59 66
e 59 71
e 60 61
e 60 66
e 60 73
e 60 97
e 61 67
e 61 80
e 61 95
e 62 85
e 62 92
e 62 96
e 63 93
e 63 95
e 65 69
e 65 72
e 65 90
e 65 97
e 67 83
e 67 94
e 68 76
e 68 87
e 68 98
e 69 71
e 69 76
e 69 93
e 69 97
e 70 85
e 70 98
e 71 75
e 72 81
e 72 84
e 73 84
e 73 86
e 73 98
e 74 95
e 75 84
e 75 99
e 76 83
e 76 87
e 77 92
e 78 94
e 79 90
e 80 81
e 80 90
e 81 99
e 83 93
e 83 98
e 85 99
e 86 97
e 88 98
e 91 97
e 92 100
e 95 96
n 9 2
n 12 4
n 17 2
n 20 4
n 24 2
n 25 3
n 26 5
n 28 2
n 36 3
n 39 2
n 41 2
n 42 3
n 47 3
n 50 5
n 53 2
n 54 3
n 57 4
n 63 2
n 66 5
n 69 1
n 70 2
n 72 4
n 76 1
n 77 3
n 82 4
n 84 4
n 86 3
n 87 1
n 90 2
n 99 5
